============================[ Problem Statistics ]=============================|                                                                             ||  Number of variables:          4242                                         ||  Number of clauses:           10286                                         ||  Parse time:                   0.67 s                                       ||                                                                             |============================[ Search Statistics ]==============================| Conflicts |          ORIGINAL         |          LEARNT          | Progress ||           |    Vars  Clauses Literals |    Limit  Clauses Lit/Cl |          |===============================================================================|       100 |    1591     6491  1074582 |     2380      100     53 | 62.501 % ||       250 |    1591     6491  1074582 |     2618      250     75 | 62.495 % |===============================================================================restarts              : 3conflicts             : 367            (361 /sec)decisions             : 631            (0.00 % random) (620 /sec)propagations          : 11988          (11788 /sec)conflict literals     : 30046          (94.60 % deleted)CPU time              : 1.017 sSATISFIABLE